
Gurobi 6.5.2 (linux64) logging started Tue Sep  6 10:06:22 2016

Optimize a model with 101 rows, 663 columns and 1355 nonzeros
Coefficient statistics:
  Matrix range    [1e+00, 2e+00]
  Objective range [1e+00, 1e+02]
  Bounds range    [1e+00, 1e+00]
  RHS range       [1e+00, 1e+00]
Presolve removed 39 rows and 26 columns
Presolve time: 0.00s
Presolved: 62 rows, 637 columns, 1280 nonzeros
Variable types: 0 continuous, 637 integer (637 binary)

Root relaxation: objective 8.025000e+02, 63 iterations, 0.00 seconds

    Nodes    |    Current Node    |     Objective Bounds      |     Work
 Expl Unexpl |  Obj  Depth IntInf | Incumbent    BestBd   Gap | It/Node Time

     0     0  802.50000    0    8          -  802.50000      -     -    0s
     0     0  814.54545    0   17          -  814.54545      -     -    0s
     0     0  814.75000    0   17          -  814.75000      -     -    0s
     0     0  814.83333    0    9          -  814.83333      -     -    0s
     0     0  814.83333    0    9          -  814.83333      -     -    0s
     0     2  814.83333    0    9          -  814.83333      -     -    0s
H 1092   885                     957.0000000  826.50000  13.6%   4.6    0s
* 1096   843              15     836.0000000  836.00000  0.00%   4.6    0s

Cutting planes:
  Gomory: 9
  Cover: 6
  Flow cover: 1
  Zero half: 10
  Lazy constraints: 23

Explored 1096 nodes (5316 simplex iterations) in 0.37 seconds
Thread count was 8 (of 8 available processors)

Optimal solution found (tolerance 1.00e-04)
Best objective 8.360000000000e+02, best bound 8.360000000000e+02, gap 0.0%
